unsat
(:max-memory          18.12
 :memory              17.95
 :nlsat-conflicts     7
 :nlsat-decisions     1
 :nlsat-learned-added 6
 :nlsat-propagations  23
 :nlsat-stages        8
 :num-allocs          6243
 :rlimit-count        3777
 :time                0.00
 :total-time          0.01)
